240
428
184
198
153
287
200
182
295
194
582
222
180
428
148
346
182
292
223
185
235
145
139
174
168
119
300
297
343
127
191
222
167
441
149
293
199
128
182
168
198
80
174
119
117
173
186
226
311
243
190
188
264
145
172
351
180
191
105
229
148
188
161
190
92
102
140
189
253
207
150
125
364
313
139
155
152
251
419
93
265
89
131
227
249
224
297
247
272
0
212
294
199
404
270
318
191
124
165
157
